RT is False
Default write of storage_offers_DA.csv just to have a file (but constraint should be inactive)
Reading model...
...model read.
creating competitive generators file...
...competitive generators recorded.
Loading data...
.. day-ahead data read.
Compiling instance...
...instance created.
Creating Offer Mitigation (model will solve as dispatch if TRUE)...
NOTE: storage offers will not be mitigated
...storage offer mitigation file created
Converting model to MPEC...
...converted
NOTE: initial MIP solve with only storage competitive to get feasible solution
Solving...

Welcome to IBM(R) ILOG(R) CPLEX(R) Interactive Optimizer 12.9.0.0
  with Simplex, Mixed Integer & Barrier Optimizers
5725-A06 5725-A29 5724-Y48 5724-Y49 5724-Y54 5724-Y55 5655-Y21
Copyright IBM Corp. 1988, 2019.  All Rights Reserved.

Type 'help' for a list of available commands.
Type 'help' followed by a command name for more
information on commands.

CPLEX> Logfile 'cplex.log' closed.
Logfile 'C:\Users\Luke\Desktop\test919\logs\tmpcl0vebum.cplex.log' open.
CPLEX> New value for parallel optimization mode: -1
CPLEX> New value for mixed integer optimality gap tolerance: 0.01
CPLEX> New value for integrality tolerance: 1e-09
CPLEX> New value for feasibility tolerance: 0.01
CPLEX> New value for deterministic time limit in ticks: 75000
CPLEX> Problem 'C:\Users\Luke\Desktop\test919\logs\tmpru8iz6rb.pyomo.lp' read.
Read time = 0.20 sec. (14.73 ticks)
CPLEX> Problem name         : C:\Users\Luke\Desktop\test919\logs\tmpru8iz6rb.pyomo.lp
Objective sense      : Maximize
Variables            :   53805  [Nneg: 1,  Box: 22000,  Free: 4464,
                                 Binary: 27340]
Objective nonzeros   :    9061
Linear constraints   :  123205  [Less: 41346,  Greater: 59096,  Equal: 22763]
  Nonzeros           :  291785
  RHS nonzeros       :   67523

Variables            : Min LB: -5000.000        Max UB: 1000000.       
Objective nonzeros   : Min   : 0.1000000        Max   : 2500.000       
Linear constraints   :
  Nonzeros           : Min   : 0.1000000        Max   : 1000000.       
  RHS nonzeros       : Min   : 0.1000000        Max   : 1000000.       
CPLEX> CPXPARAM_Parallel                                -1
CPXPARAM_Simplex_Tolerances_Feasibility          0.01
CPXPARAM_DetTimeLimit                            75000
CPXPARAM_MIP_Tolerances_MIPGap                   0.01
CPXPARAM_MIP_Tolerances_Integrality              1.0000000000000001e-09
Tried aggregator 3 times.
MIP Presolve eliminated 88522 rows and 18872 columns.
MIP Presolve added 3411 rows and 0 columns.
MIP Presolve modified 24900 coefficients.
Aggregator did 12987 substitutions.
Reduced MIP has 25107 rows, 21416 columns, and 71532 nonzeros.
Reduced MIP has 8469 binaries, 0 generals, 0 SOSs, and 0 indicators.
Presolve time = 0.25 sec. (173.74 ticks)
Probing fixed 389 vars, tightened 2848 bounds.
Probing time = 1.48 sec. (878.72 ticks)
Tried aggregator 2 times.
MIP Presolve eliminated 881 rows and 780 columns.
MIP Presolve modified 2245 coefficients.
Aggregator did 38 substitutions.
Reduced MIP has 24188 rows, 20598 columns, and 68866 nonzeros.
Reduced MIP has 8080 binaries, 0 generals, 0 SOSs, and 0 indicators.
Presolve time = 0.09 sec. (72.57 ticks)
Probing time = 0.03 sec. (16.32 ticks)
Clique table members: 6373.
MIP emphasis: balance optimality and feasibility.
MIP search method: dynamic search.
Parallel mode: opportunistic, using up to 24 threads.
Root relaxation solution time = 0.45 sec. (315.77 ticks)

        Nodes                                         Cuts/
   Node  Left     Objective  IInf  Best Integer    Best Bound    ItCnt     Gap

      0     0     3780.3869  1761                   3780.3869     6890         
      0     0     3780.3869   666                   Cuts: 571     7145         
      0     0     3780.3869   569                   Cuts: 321     7331         
      0     0     3780.3869   465                   Cuts: 232     7433         
      0     0     3780.3869   415                   Cuts: 130     7507         
      0     0     3780.3869   381                    Cuts: 89     7546         
      0     0     3780.3869   357                    Cuts: 54     7569         
      0     0     3780.3869   346                    Cuts: 50     7581         
      0     0     3780.3869   337                    Cuts: 34     7590         
      0     0     3780.3869   333                    Cuts: 28     7594         
      0     0     3780.3869   327                    Cuts: 27     7599         
      0    10    infeasible                       Flowcuts: 1     8405         
Elapsed time = 10.42 sec. (7128.87 ticks, tree = 0.02 MB, solutions = 0)
    570    38     3724.1908   310                   3726.4579     8621         
   1080   747     3332.5351   283                   3726.4579     9957         
   1761  1450     3585.9605   271                   3726.4579    10644         
   2610  1799     1843.6008   254                   3726.4579    11583         
   3158  2867    -7615.3156   182                   3726.4579    13490         
   3762  3308   -10259.2829   159                   3726.4579    17644         
   4357  4100   -10445.7505   119                   3726.4579    19709         
   4999  4758   -11496.2024    75                   3726.4579    20616         
   5886  5234   -10415.4574   110                   3726.4579    20743         
*  7577  6302      integral     0   -11967.1196     3726.4579    20877  131.14%
Elapsed time = 17.56 sec. (9864.77 ticks, tree = 88.19 MB, solutions = 2)
   7648  6384        cutoff         -11967.1196     3720.4291    28216  131.09%
*  7776    16      integral     0     3702.6521     3704.4768    29164    0.05%

GUB cover cuts applied:  1
Clique cuts applied:  11
Cover cuts applied:  1
Implied bound cuts applied:  24
Flow cuts applied:  291
Mixed integer rounding cuts applied:  33
Gomory fractional cuts applied:  44

Root node processing (before b&c):
  Real time             =   10.03 sec. (7125.70 ticks)
Parallel b&c, 24 threads:
  Real time             =   15.39 sec. (7964.94 ticks)
  Sync time (average)   =    0.79 sec.
  Wait time (average)   =    0.07 sec.
                          ------------
Total (root+branch&cut) =   25.42 sec. (15090.64 ticks)

Solution pool: 17 solutions saved.

MIP - Integer optimal, tolerance (0.01/1e-06):  Objective =  3.7026520730e+03
Current MIP best bound =  3.7044767844e+03 (gap = 1.82471, 0.05%)
Solution time =   25.44 sec.  Iterations = 29258  Nodes = 7885 (7)
Deterministic time = 15090.79 ticks  (593.24 ticks/sec)

CPLEX> Incumbent solution written to file 'C:\Users\Luke\Desktop\test919\logs\tmpjmsxj7c5.cplex.sol'.
CPLEX> NOTE: no warmstart specified for MIP iteration, default behavior is true
NOTE: resolving with all competitive generators using storage-only solution to warmstart
Solving...

Welcome to IBM(R) ILOG(R) CPLEX(R) Interactive Optimizer 12.9.0.0
  with Simplex, Mixed Integer & Barrier Optimizers
5725-A06 5725-A29 5724-Y48 5724-Y49 5724-Y54 5724-Y55 5655-Y21
Copyright IBM Corp. 1988, 2019.  All Rights Reserved.

Type 'help' for a list of available commands.
Type 'help' followed by a command name for more
information on commands.

CPLEX> Logfile 'cplex.log' closed.
Logfile 'C:\Users\Luke\Desktop\test919\logs\tmp8q4qtunj.cplex.log' open.
CPLEX> New value for parallel optimization mode: -1
CPLEX> New value for mixed integer optimality gap tolerance: 0.01
CPLEX> New value for integrality tolerance: 1e-09
CPLEX> New value for feasibility tolerance: 0.01
CPLEX> New value for deterministic time limit in ticks: 75000
CPLEX> Problem 'C:\Users\Luke\Desktop\test919\logs\tmp3h_jqb_c.pyomo.lp' read.
Read time = 0.20 sec. (14.75 ticks)
CPLEX> MIP start file 'C:\Users\Luke\Desktop\test919\logs\tmpwt_864na.cplex.mst' read.
CPLEX> Problem name         : C:\Users\Luke\Desktop\test919\logs\tmp3h_jqb_c.pyomo.lp
Objective sense      : Maximize
Variables            :   54525  [Nneg: 1,  Box: 22720,  Free: 4464,
                                 Binary: 27340]
Objective nonzeros   :    9781
Linear constraints   :  123205  [Less: 41346,  Greater: 59096,  Equal: 22763]
  Nonzeros           :  291785
  RHS nonzeros       :   67523

Variables            : Min LB: -5000.000        Max UB: 1000000.       
Objective nonzeros   : Min   : 0.1000000        Max   : 2500.000       
Linear constraints   :
  Nonzeros           : Min   : 0.1000000        Max   : 1000000.       
  RHS nonzeros       : Min   : 0.1000000        Max   : 1000000.       
CPLEX> CPXPARAM_Parallel                                -1
CPXPARAM_Simplex_Tolerances_Feasibility          0.01
CPXPARAM_DetTimeLimit                            75000
CPXPARAM_MIP_Tolerances_MIPGap                   0.01
CPXPARAM_MIP_Tolerances_Integrality              1.0000000000000001e-09
Warning:  No solution found from 1 MIP starts.
Retaining values of one MIP start for possible repair.
Tried aggregator 3 times.
MIP Presolve eliminated 88522 rows and 19592 columns.
MIP Presolve added 3411 rows and 0 columns.
MIP Presolve modified 24900 coefficients.
Aggregator did 12987 substitutions.
Reduced MIP has 25107 rows, 21416 columns, and 71532 nonzeros.
Reduced MIP has 8469 binaries, 0 generals, 0 SOSs, and 0 indicators.
Presolve time = 0.23 sec. (174.10 ticks)
Probing fixed 389 vars, tightened 2848 bounds.
Probing time = 1.50 sec. (878.72 ticks)
Tried aggregator 2 times.
MIP Presolve eliminated 881 rows and 780 columns.
MIP Presolve modified 2245 coefficients.
Aggregator did 38 substitutions.
Reduced MIP has 24188 rows, 20598 columns, and 68866 nonzeros.
Reduced MIP has 8080 binaries, 0 generals, 0 SOSs, and 0 indicators.
Presolve time = 0.09 sec. (72.57 ticks)
Probing time = 0.03 sec. (16.32 ticks)
Clique table members: 6373.
MIP emphasis: balance optimality and feasibility.
MIP search method: dynamic search.
Parallel mode: opportunistic, using up to 24 threads.
Root relaxation solution time = 0.47 sec. (315.77 ticks)

        Nodes                                         Cuts/
   Node  Left     Objective  IInf  Best Integer    Best Bound    ItCnt     Gap

      0     0     3780.3869  1761                   3780.3869     6890         
      0     0     3780.3869   666                   Cuts: 571     7145         
      0     0     3780.3869   569                   Cuts: 321     7331         
      0     0     3780.3869   465                   Cuts: 232     7433         
      0     0     3780.3869   415                   Cuts: 130     7507         
      0     0     3780.3869   381                    Cuts: 89     7546         
      0     0     3780.3869   357                    Cuts: 54     7569         
      0     0     3780.3869   346                    Cuts: 50     7581         
      0     0     3780.3869   337                    Cuts: 34     7590         
      0     0     3780.3869   330                    Cuts: 30     7596         
      0     0     3780.3869   327                    Cuts: 25     7599         
Repair heuristic found nothing.
      0    13    infeasible                       Flowcuts: 1     8595         
Elapsed time = 10.67 sec. (7148.00 ticks, tree = 0.02 MB, solutions = 0)
    411    55     3537.7232   303                   3726.4579     8770         
    962   497     3724.1908   277                   3726.4579     9699         
   1564  1080     3724.1908   257                   3726.4579    10992         
   2579  1681     3190.0237   244                   3726.4579    11708         
   3223  2495    -4380.6437   180                   3726.4579    13072         
   3712  3198    -4378.4895   162                   3726.4579    16469         
   4255  3643    -4380.6437   138                   3726.4579    20723         
   4867  4111   -13536.9701   126                   3726.4579    24953         
   5612  4956   -10259.2829   122                   3726.4579    27066         
*  7116+ 5787                       -11243.2193     3726.4579           133.14%
Elapsed time = 17.89 sec. (9781.12 ticks, tree = 61.36 MB, solutions = 1)
   8461  5989     3726.4579   121   -11243.2193     3726.4579    31307  133.14%
   8494  7201    infeasible         -11243.2193     3726.4579    42510  133.14%
   9156   317     3774.2480    20     3664.7028     3726.4579    45077    1.69%
*  9330   538      integral     0     3768.0400     3726.4579    44979   -1.10%

Clique cuts applied:  11
Cover cuts applied:  2
Implied bound cuts applied:  4
Flow cuts applied:  215
Mixed integer rounding cuts applied:  9
Gomory fractional cuts applied:  40

Root node processing (before b&c):
  Real time             =   10.25 sec. (7138.24 ticks)
Parallel b&c, 24 threads:
  Real time             =   19.64 sec. (9915.27 ticks)
  Sync time (average)   =    0.62 sec.
  Wait time (average)   =    0.08 sec.
                          ------------
Total (root+branch&cut) =   29.89 sec. (17053.50 ticks)

Solution pool: 5 solutions saved.

MIP - Integer optimal solution:  Objective =  3.7680399639e+03
Solution time =   29.89 sec.  Iterations = 45485  Nodes = 9409
Deterministic time = 17053.66 ticks  (570.53 ticks/sec)

CPLEX> Incumbent solution written to file 'C:\Users\Luke\Desktop\test919\logs\tmpmicyeur0.cplex.sol'.
CPLEX> Exporting results... 
